NAME : cluster_netgen
COMMENT : cl=7
TYPE : TSP
DIMENSION : 51
EDGE_WEIGHT_TYPE : EUC_2D
NODE_COORD_SECTION
1 877714 701818
2 801146 722801
3 861565 730364
4 840314 686631
5 921340 759962
6 881816 766785
7 815255 702939
8 164701 435784
9 236035 349392
10 386496 265314
11 237971 268294
12 221820 295285
13 314526 294213
14 267374 301720
15 518496 441546
16 450772 450555
17 467187 522404
18 489920 381193
19 413059 424624
20 436223 429141
21 503240 525698
22 316178 994496
23 303456 934014
24 195405 984014
25 212037 956724
26 269084 996602
27 338771 990111
28 261731 969832
29 227627 989408
30 288487 989708
31 648251 103346
32 613856 197742
33 691302 158128
34 735672 127157
35 664597 117133
36 673759 26
37 712120 152597
38 205569 95173
39 101106 222625
40 218437 227336
41 133186 171767
42 113614 226169
43 159318 216299
44 189943 101902
45 869729 753185
46 806705 561332
47 856317 680270
48 924946 602615
49 813141 738571
50 887518 709018
51 878855 790554

EOF
